g9 0 1 0 20 20081213 0 4 0 240	# problem tmp
 30 20 1 0 0	# vars, constraints, objectives, ranges, eqns
 0 1 20 0	# nonlinear constrs, objs; ccons: lin, nonlin
 0 0	# network constraints: nonlinear, linear
 0 30 0	# nonlinear vars in constraints, objectives, both
 0 0 0 1	# linear network variables; functions; arith, flags
 0 0 0 0 0	# discrete variables: binary, integer, nonlinear (b,c,o)
 30 30	# nonzeros in Jacobian, gradients
 0 0	# max name lengths: constraints, variables
 0 0 0 0 0	# common exprs: b,c,o,c1,o1
C0
n0
C1
n0
C2
n0
C3
n0
C4
n0
C5
n0
C6
n0
C7
n0
C8
n0
C9
n0
C10
n0
C11
n0
C12
n0
C13
n0
C14
n0
C15
n0
C16
n0
C17
n0
C18
n0
C19
n0
O0 0
o54
30
o5
o0
n1
v0
n2
o5
o0
n1
v1
n2
o5
o0
n1
v2
n2
o5
o0
n1
v3
n2
o5
o0
n1
v4
n2
o5
o0
n1
v5
n2
o5
o0
n1
v6
n2
o5
o0
n1
v7
n2
o5
o0
n1
v8
n2
o5
o0
n1
v9
n2
o5
o0
n2
v10
n2
o5
o0
n2
v11
n2
o5
o0
n2
v12
n2
o5
o0
n2
v13
n2
o5
o0
n2
v14
n2
o5
o0
n2
v15
n2
o5
o0
n2
v16
n2
o5
o0
n2
v17
n2
o5
o0
n2
v18
n2
o5
o0
n2
v19
n2
o5
o0
n2
v20
n2
o5
o0
n2
v21
n2
o5
o0
n2
v22
n2
o5
o0
n2
v23
n2
o5
o0
n2
v24
n2
o5
o0
n2
v25
n2
o5
o0
n2
v26
n2
o5
o0
n2
v27
n2
o5
o0
n2
v28
n2
o5
o0
n2
v29
n2
x30
0 1
1 1
2 1
3 1
4 1
5 1
6 1
7 1
8 1
9 1
10 1
11 1
12 1
13 1
14 1
15 1
16 1
17 1
18 1
19 1
20 1
21 1
22 1
23 1
24 1
25 1
26 1
27 1
28 1
29 1
r
5 1 11
5 1 12
5 1 13
5 1 14
5 1 15
5 1 16
5 1 17
5 1 18
5 1 19
5 1 20
5 1 21
5 1 22
5 1 23
5 1 24
5 1 25
5 1 26
5 1 27
5 1 28
5 1 29
5 1 30
b
3
3
3
3
3
3
3
3
3
3
2 0
2 0
2 0
2 0
2 0
2 0
2 0
2 0
2 0
2 0
2 0
2 0
2 0
2 0
2 0
2 0
2 0
2 0
2 0
2 0
k29
1
2
3
4
5
6
7
8
9
10
11
12
13
14
15
16
17
18
19
20
21
22
23
24
25
26
27
28
29
J0 2
0 -1
10 1
J1 2
1 -1
11 1
J2 2
2 -1
12 1
J3 2
3 -1
13 1
J4 2
4 -1
14 1
J5 2
5 -1
15 1
J6 2
6 -1
16 1
J7 2
7 -1
17 1
J8 2
8 -1
18 1
J9 2
9 -1
19 1
J10 1
20 1
J11 1
21 1
J12 1
22 1
J13 1
23 1
J14 1
24 1
J15 1
25 1
J16 1
26 1
J17 1
27 1
J18 1
28 1
J19 1
29 1
G0 30
0 0
1 0
2 0
3 0
4 0
5 0
6 0
7 0
8 0
9 0
10 0
11 0
12 0
13 0
14 0
15 0
16 0
17 0
18 0
19 0
20 0
21 0
22 0
23 0
24 0
25 0
26 0
27 0
28 0
29 0
